&CONTROL
calculation = 'scf'
verbosity = 'high'
tstress = .true.
wf_collect = .true.
/
&SYSTEM
input_dft = 'PBE'
ibrav = 0
nosym = .true.
ecutwfc = 40
tot_charge = 0
nspin = 2
tot_magnetization = 2
nat = 1438
ntyp = 2
/
&ELECTRONS
conv_thr = 1D-08
mixing_mode = 'plain'
mixing_beta = 0.7
diagonalization = 'david'
startingpot = 'atomic'
startingwfc = 'atomic+random'
/
K_POINTS automatic
1 1 1 0 0 0
CELL_PARAMETERS angstrom
20.271833  0.000000  0.000000
0.000000  26.811844  0.000000
0.000000  0.000000  27.863746
ATOMIC_SPECIES
C  12.01099968  C.pbe-tm-gipaw.UPF
Si  28.08499908  Si.pbe-tm-gipaw.UPF
ATOMIC_POSITIONS crystal
C    0.09374000  0.00000000  0.00000000
C    0.09381000  0.10000000  0.05555000
C    0.21910000  0.06667000  0.00000000
C    0.21910000  0.16667000  0.05554000
C    0.34374000  0.00000000  0.00000000
C    0.34380000  0.10000000  0.05555000
C    0.46910000  0.03333000  0.05554000
C    0.46910000  0.13334000  0.00000000
C    0.59374000  0.00000000  0.00000000
C    0.59380000  0.10001000  0.05555000
C    0.71910000  0.06667000  0.00000000
C    0.71910000  0.16667000  0.05554000
C    0.84374000  0.00000000  0.00000000
C    0.84381000  0.10000000  0.05555000
C    0.96910000  0.03333000  0.05554000
C    0.96910000  0.13334000  0.00000000
C    0.09374000  0.20000000  0.00000000
C    0.09381000  0.30000000  0.05555000
C    0.21910000  0.26667000  0.00000000
C    0.21910000  0.36667000  0.05554000
C    0.34374000  0.20000000  0.00000000
C    0.34381000  0.30000000  0.05555000
C    0.46910000  0.23333000  0.05554000
C    0.46910000  0.33333000  0.00000000
C    0.59373000  0.20001000  0.00000000
C    0.59380000  0.30001000  0.05556000
C    0.71910000  0.26667000  0.00000000
C    0.71910000  0.36667000  0.05555000
C    0.84374000  0.20000000  0.00000000
C    0.84381000  0.30000000  0.05555000
C    0.96910000  0.23333000  0.05554000
C    0.96910000  0.33333000  0.00000000
C    0.09374000  0.40000000  0.00000000
C    0.09381000  0.50000000  0.05555000
C    0.21910000  0.46667000  0.00000000
C    0.21910000  0.56667000  0.05554000
C    0.34374000  0.40000000  0.00000000
C    0.34382000  0.50000000  0.05556000
C    0.46910000  0.43333000  0.05555000
C    0.46911000  0.53332000  0.00000000
C    0.59373000  0.40000000  0.00000000
C    0.59381000  0.49999000  0.05560000
C    0.71910000  0.46666000  0.00000000
C    0.71910000  0.56667000  0.05554000
C    0.84374000  0.40000000  0.00000000
C    0.84380000  0.50000000  0.05556000
C    0.96910000  0.43333000  0.05554000
C    0.96910000  0.53333000  0.00000000
C    0.09374000  0.60000000  0.00000000
C    0.09381000  0.70000000  0.05555000
C    0.21910000  0.66666000  0.00000000
C    0.21910000  0.76667000  0.05554000
C    0.34374000  0.60000000  0.00000000
C    0.34381000  0.70000000  0.05555000
C    0.46910000  0.63332000  0.05556000
C    0.46910000  0.73333000  0.00000000
C    0.59374000  0.59998000  0.00000000
C    0.59381000  0.69999000  0.05556000
C    0.71910000  0.66666000  0.00000000
C    0.71910000  0.76667000  0.05554000
C    0.84374000  0.60000000  0.00000000
C    0.84381000  0.70000000  0.05555000
C    0.96910000  0.63333000  0.05554000
C    0.96910000  0.73333000  0.00000000
C    0.09374000  0.80000000  0.00000000
C    0.09381000  0.90000000  0.05555000
C    0.21910000  0.86667000  0.00000000
C    0.21910000  0.96667000  0.05554000
C    0.34374000  0.80000000  0.00000000
C    0.34380000  0.90000000  0.05555000
C    0.46910000  0.83333000  0.05555000
C    0.46910000  0.93334000  0.00000000
C    0.59374000  0.80000000  0.00000000
C    0.59381000  0.90000000  0.05555000
C    0.71910000  0.86667000  0.00000000
C    0.71910000  0.96667000  0.05554000
C    0.84374000  0.80000000  0.00000000
C    0.84381000  0.90000000  0.05555000
C    0.96910000  0.83333000  0.05554000
C    0.96910000  0.93334000  0.00000000
C    0.09381000  0.00000000  0.11112000
C    0.09374000  0.10000000  0.16667000
C    0.21910000  0.06667000  0.11113000
C    0.21910000  0.16667000  0.16667000
C    0.34380000  0.00000000  0.11112000
C    0.34374000  0.10001000  0.16667000
C    0.46910000  0.03334000  0.16667000
C    0.46910000  0.13334000  0.11112000
C    0.59380000  0.00000000  0.11112000
C    0.59373000  0.10002000  0.16667000
C    0.71910000  0.06668000  0.11113000
C    0.71910000  0.16668000  0.16667000
C    0.84381000  0.00001000  0.11112000
C    0.84374000  0.10001000  0.16666000
C    0.96910000  0.03334000  0.16666000
C    0.96910000  0.13333000  0.11112000
C    0.09381000  0.20000000  0.11112000
C    0.09374000  0.30000000  0.16667000
C    0.21910000  0.26667000  0.11113000
C    0.21910000  0.36667000  0.16667000
C    0.34380000  0.20000000  0.11112000
C    0.34374000  0.30000000  0.16667000
C    0.46910000  0.23334000  0.16667000
C    0.46910000  0.33333000  0.11113000
C    0.59380000  0.20001000  0.11112000
C    0.59373000  0.30002000  0.16669000
C    0.71910000  0.26668000  0.11113000
C    0.71910000  0.36668000  0.16671000
C    0.84381000  0.20000000  0.11112000
C    0.84374000  0.30000000  0.16667000
C    0.96910000  0.23333000  0.16667000
C    0.96910000  0.33333000  0.11112000
C    0.09381000  0.40000000  0.11112000
C    0.09373000  0.50000000  0.16668000
C    0.21911000  0.46667000  0.11113000
C    0.21911000  0.56667000  0.16667000
C    0.34381000  0.40000000  0.11112000
C    0.34376000  0.50000000  0.16671000
C    0.46911000  0.43333000  0.16669000
C    0.46913000  0.53332000  0.11118000
C    0.59380000  0.40000000  0.11116000
C    0.59376000  0.49998000  0.16688000
C    0.71909000  0.46667000  0.11117000
C    0.71911000  0.56666000  0.16665000
C    0.84380000  0.40000000  0.11113000
C    0.84372000  0.49999000  0.16670000
C    0.96910000  0.43333000  0.16667000
C    0.96909000  0.53332000  0.11114000
C    0.09381000  0.59999000  0.11112000
C    0.09374000  0.70000000  0.16667000
C    0.21910000  0.66667000  0.11112000
C    0.21910000  0.76666000  0.16667000
C    0.34382000  0.60000000  0.11113000
C    0.34375000  0.70000000  0.16668000
C    0.46912000  0.63331000  0.16671000
C    0.46911000  0.73332000  0.11115000
C    0.59381000  0.59997000  0.11111000
C    0.59375000  0.69997000  0.16670000
C    0.71910000  0.66667000  0.11113000
C    0.71910000  0.76666000  0.16667000
C    0.84381000  0.60000000  0.11111000
C    0.84373000  0.70000000  0.16666000
C    0.96910000  0.63333000  0.16666000
C    0.96910000  0.73333000  0.11112000
C    0.09380000  0.80000000  0.11112000
C    0.09374000  0.90000000  0.16667000
C    0.21910000  0.86667000  0.11112000
C    0.21910000  0.96667000  0.16667000
C    0.34381000  0.80000000  0.11112000
C    0.34374000  0.90000000  0.16667000
C    0.46911000  0.83332000  0.16668000
C    0.46910000  0.93333000  0.11113000
C    0.59381000  0.79999000  0.11113000
C    0.59374000  0.90000000  0.16667000
C    0.71910000  0.86667000  0.11112000
C    0.71910000  0.96667000  0.16667000
C    0.84380000  0.80000000  0.11112000
C    0.84373000  0.90001000  0.16666000
C    0.96910000  0.83334000  0.16666000
C    0.96910000  0.93333000  0.11112000
C    0.09381000  0.00000000  0.22222000
C    0.09381000  0.10000000  0.27779000
C    0.21910000  0.06667000  0.22221000
C    0.21910000  0.16668000  0.27779000
C    0.34381000  0.00000000  0.22222000
C    0.34381000  0.10001000  0.27779000
C    0.46910000  0.03334000  0.27779000
C    0.46910000  0.13334000  0.22221000
C    0.59380000  0.00003000  0.22221000
C    0.59381000  0.10002000  0.27779000
C    0.71910000  0.06669000  0.22221000
C    0.71910000  0.16669000  0.27780000
C    0.84381000  0.00001000  0.22221000
C    0.84380000  0.10001000  0.27778000
C    0.96910000  0.03334000  0.27779000
C    0.96910000  0.13333000  0.22221000
C    0.09381000  0.20000000  0.22222000
C    0.09381000  0.30001000  0.27779000
C    0.21910000  0.26668000  0.22221000
C    0.21910000  0.36668000  0.27781000
C    0.34380000  0.20001000  0.22222000
C    0.34380000  0.30001000  0.27779000
C    0.46910000  0.23334000  0.27779000
C    0.46910000  0.33334000  0.22222000
C    0.59381000  0.20003000  0.22223000
C    0.59380000  0.30004000  0.27783000
C    0.71910000  0.26670000  0.22224000
C    0.71910000  0.36672000  0.27789000
C    0.84380000  0.20001000  0.22222000
C    0.84381000  0.30002000  0.27779000
C    0.96910000  0.23333000  0.27779000
C    0.96910000  0.33333000  0.22221000
C    0.09381000  0.40000000  0.22222000
C    0.09379000  0.49999000  0.27782000
C    0.21911000  0.46668000  0.22224000
C    0.21908000  0.56666000  0.27778000
C    0.34381000  0.40000000  0.22223000
C    0.34386000  0.50001000  0.27785000
C    0.46911000  0.43332000  0.27784000
C    0.46916000  0.53331000  0.22234000
C    0.59379000  0.40000000  0.22231000
C    0.59381000  0.49995000  0.27830000
C    0.71909000  0.46667000  0.22233000
C    0.71916000  0.56667000  0.27773000
C    0.84380000  0.40000000  0.22224000
C    0.84374000  0.49998000  0.27786000
C    0.96908000  0.43332000  0.27781000
C    0.96908000  0.53332000  0.22224000
C    0.09380000  0.59999000  0.22221000
C    0.09380000  0.69999000  0.27778000
C    0.21911000  0.66666000  0.22221000
C    0.21911000  0.76666000  0.27780000
C    0.34384000  0.60000000  0.22224000
C    0.34383000  0.69997000  0.27782000
C    0.46915000  0.63325000  0.27788000
C    0.46913000  0.73328000  0.22227000
C    0.59384000  0.59994000  0.22216000
C    0.59384000  0.69993000  0.27784000
C    0.71910000  0.66666000  0.22222000
C    0.71910000  0.76667000  0.27780000
C    0.84382000  0.60000000  0.22219000
C    0.84380000  0.70001000  0.27778000
C    0.96910000  0.63332000  0.27778000
C    0.96909000  0.73333000  0.22220000
C    0.09381000  0.80000000  0.22222000
C    0.09381000  0.90000000  0.27779000
C    0.21910000  0.86667000  0.22221000
C    0.21910000  0.96667000  0.27779000
C    0.34381000  0.79999000  0.22222000
C    0.34381000  0.89999000  0.27779000
C    0.46910000  0.83331000  0.27781000
C    0.46910000  0.93333000  0.22221000
C    0.59381000  0.79997000  0.22223000
C    0.59380000  0.90007000  0.27775000
C    0.71910000  0.86667000  0.22221000
C    0.71910000  0.96669000  0.27778000
C    0.84380000  0.80000000  0.22221000
C    0.84381000  0.90002000  0.27777000
C    0.96910000  0.83334000  0.27778000
C    0.96910000  0.93334000  0.22220000
C    0.09374000  0.00001000  0.33333000
C    0.09381000  0.10000000  0.38888000
C    0.21910000  0.06667000  0.33333000
C    0.21910000  0.16667000  0.38888000
C    0.34374000  0.00000000  0.33333000
C    0.34381000  0.10000000  0.38888000
C    0.46910000  0.03334000  0.38887000
C    0.46910000  0.13333000  0.33333000
C    0.59374000  0.00003000  0.33332000
C    0.59380000  0.10000000  0.38887000
C    0.71910000  0.06668000  0.33333000
C    0.71910000  0.16667000  0.38887000
C    0.84374000  0.00001000  0.33333000
C    0.84381000  0.10001000  0.38888000
C    0.96910000  0.03334000  0.38888000
C    0.96910000  0.13334000  0.33333000
C    0.09373000  0.20000000  0.33334000
C    0.09379000  0.30001000  0.38889000
C    0.21908000  0.26667000  0.33333000
C    0.21913000  0.36667000  0.38888000
C    0.34373000  0.20000000  0.33333000
C    0.34376000  0.29997000  0.38885000
C    0.46908000  0.23326000  0.38886000
C    0.46909000  0.33331000  0.33334000
C    0.59374000  0.20002000  0.33335000
C    0.59377000  0.29996000  0.38895000
C    0.71910000  0.26670000  0.33335000
C    0.71899000  0.36671000  0.38899000
C    0.84374000  0.20002000  0.33334000
C    0.84377000  0.30002000  0.38888000
C    0.96909000  0.23334000  0.38888000
C    0.96909000  0.33335000  0.33333000
C    0.09374000  0.40003000  0.33336000
C    0.09376000  0.50000000  0.38890000
C    0.21922000  0.46670000  0.33340000
C    0.21917000  0.56665000  0.38890000
C    0.34375000  0.40000000  0.33334000
C    0.34422000  0.50002000  0.38904000
C    0.46911000  0.43321000  0.38894000
C    0.46921000  0.53328000  0.33354000
C    0.59368000  0.40001000  0.33355000
C    0.59352000  0.50014000  0.39033000
C    0.71901000  0.46670000  0.33358000
C    0.71914000  0.56682000  0.38878000
C    0.84370000  0.40002000  0.33339000
C    0.84332000  0.49994000  0.38912000
C    0.96895000  0.43334000  0.38892000
C    0.96893000  0.53330000  0.33341000
C    0.09375000  0.59996000  0.33333000
C    0.09387000  0.70000000  0.38889000
C    0.21910000  0.66665000  0.33333000
C    0.21909000  0.76666000  0.38888000
C    0.34368000  0.59995000  0.33333000
C    0.34373000  0.69998000  0.38892000
C    0.46877000  0.63321000  0.38895000
C    0.46912000  0.73329000  0.33339000
C    0.59395000  0.59970000  0.33318000
C    0.59399000  0.70049000  0.38883000
C    0.71913000  0.66669000  0.33336000
C    0.71916000  0.76684000  0.38882000
C    0.84373000  0.60004000  0.33327000
C    0.84389000  0.70011000  0.38879000
C    0.96924000  0.63339000  0.38878000
C    0.96913000  0.73336000  0.33331000
C    0.09374000  0.80000000  0.33333000
C    0.09381000  0.90000000  0.38888000
C    0.21911000  0.86666000  0.33334000
C    0.21910000  0.96667000  0.38888000
C    0.34375000  0.79996000  0.33335000
C    0.34381000  0.89999000  0.38888000
C    0.46911000  0.83333000  0.38888000
C    0.46910000  0.93334000  0.33333000
C    0.59375000  0.80021000  0.33323000
C    0.59382000  0.90006000  0.38886000
C    0.71911000  0.86673000  0.33331000
C    0.71910000  0.96669000  0.38887000
C    0.84376000  0.80005000  0.33330000
C    0.84381000  0.90001000  0.38888000
C    0.96910000  0.83333000  0.38887000
C    0.96910000  0.93334000  0.33333000
C    0.09380000  0.00000000  0.44445000
C    0.09374000  0.10001000  0.50000000
C    0.21910000  0.06667000  0.44446000
C    0.21910000  0.16667000  0.50000000
C    0.34381000  0.00000000  0.44445000
C    0.34374000  0.10000000  0.50000000
C    0.46910000  0.03334000  0.50000000
C    0.46909000  0.13331000  0.44445000
C    0.59381000  0.00002000  0.44445000
C    0.59373000  0.09999000  0.50000000
C    0.71910000  0.06668000  0.44445000
C    0.71911000  0.16666000  0.50000000
C    0.84381000  0.00001000  0.44445000
C    0.84374000  0.10001000  0.50000000
C    0.96910000  0.03334000  0.50000000
C    0.96910000  0.13334000  0.44446000
C    0.09380000  0.20001000  0.44445000
C    0.09369000  0.30002000  0.50000000
C    0.21907000  0.26667000  0.44446000
C    0.21911000  0.36666000  0.50000000
C    0.34379000  0.19999000  0.44444000
C    0.34367000  0.29993000  0.50000000
C    0.46903000  0.23319000  0.50000000
C    0.46893000  0.33301000  0.44445000
C    0.59379000  0.19991000  0.44443000
C    0.59361000  0.29958000  0.50000000
C    0.71909000  0.26661000  0.44445000
C    0.71877000  0.36638000  0.50000000
C    0.84382000  0.20000000  0.44445000
C    0.84368000  0.30000000  0.50000000
C    0.96910000  0.23335000  0.50000000
C    0.96898000  0.33337000  0.44445000
C    0.09382000  0.40001000  0.44444000
C    0.09369000  0.49999000  0.50000000
C    0.21918000  0.46667000  0.44447000
C    0.21918000  0.56662000  0.50000000
C    0.34391000  0.39994000  0.44444000
C    0.34391000  0.49984000  0.50000000
C    0.46944000  0.43266000  0.50000000
C    0.47082000  0.53303000  0.44489000
C    0.59325000  0.39952000  0.44483000
C    0.71783000  0.46679000  0.44513000
C    0.72550000  0.56702000  0.50000000
C    0.84343000  0.40008000  0.44450000
C    0.84379000  0.49971000  0.50000000
C    0.96912000  0.43324000  0.50000000
C    0.96895000  0.53333000  0.44447000
C    0.09376000  0.59997000  0.44446000
C    0.09376000  0.69996000  0.50000000
C    0.21921000  0.66658000  0.44447000
C    0.21910000  0.76663000  0.50000000
C    0.34418000  0.59984000  0.44451000
C    0.34374000  0.69996000  0.50000000
C    0.46912000  0.63340000  0.50000000
C    0.46914000  0.73332000  0.44448000
C    0.59225000  0.60282000  0.44081000
C    0.59395000  0.70051000  0.50000000
C    0.71933000  0.66708000  0.44440000
C    0.71919000  0.76684000  0.50000000
C    0.84395000  0.60026000  0.44416000
C    0.84384000  0.70011000  0.50000000
C    0.96906000  0.63334000  0.50000000
C    0.96914000  0.73333000  0.44444000
C    0.09381000  0.79999000  0.44446000
C    0.09374000  0.90000000  0.50000000
C    0.21910000  0.86666000  0.44446000
C    0.21910000  0.96667000  0.50000000
C    0.34382000  0.79998000  0.44446000
C    0.34374000  0.89999000  0.50000000
C    0.46912000  0.83333000  0.50000000
C    0.46911000  0.93333000  0.44446000
C    0.59386000  0.80020000  0.44443000
C    0.59375000  0.90008000  0.50000000
C    0.71912000  0.86673000  0.44445000
C    0.71910000  0.96669000  0.50000000
C    0.84385000  0.80003000  0.44444000
C    0.84374000  0.90001000  0.50000000
C    0.96910000  0.83333000  0.50000000
C    0.96910000  0.93334000  0.44446000
C    0.09380000  0.00000000  0.55555000
C    0.09381000  0.10000000  0.61112000
C    0.21910000  0.06667000  0.55554000
C    0.21910000  0.16667000  0.61112000
C    0.34381000  0.00000000  0.55555000
C    0.34381000  0.10000000  0.61112000
C    0.46910000  0.03334000  0.61113000
C    0.46909000  0.13331000  0.55555000
C    0.59381000  0.00002000  0.55555000
C    0.59380000  0.10000000  0.61113000
C    0.71910000  0.06668000  0.55555000
C    0.71910000  0.16667000  0.61113000
C    0.84381000  0.00001000  0.55555000
C    0.84381000  0.10001000  0.61112000
C    0.96910000  0.03334000  0.61112000
C    0.96910000  0.13334000  0.55554000
C    0.09380000  0.20001000  0.55555000
C    0.09379000  0.30001000  0.61111000
C    0.21907000  0.26667000  0.55554000
C    0.21913000  0.36667000  0.61112000
C    0.34379000  0.19999000  0.55556000
C    0.34376000  0.29997000  0.61115000
C    0.46908000  0.23326000  0.61114000
C    0.46893000  0.33301000  0.55555000
C    0.59379000  0.19991000  0.55557000
C    0.59377000  0.29996000  0.61105000
C    0.71909000  0.26661000  0.55555000
C    0.71899000  0.36671000  0.61101000
C    0.84382000  0.20000000  0.55555000
C    0.84377000  0.30002000  0.61112000
C    0.96909000  0.23334000  0.61112000
C    0.96898000  0.33337000  0.55555000
C    0.09382000  0.40001000  0.55556000
C    0.09376000  0.50000000  0.61110000
C    0.21918000  0.46667000  0.55553000
C    0.21917000  0.56665000  0.61110000
C    0.34391000  0.39994000  0.55556000
C    0.34422000  0.50002000  0.61096000
C    0.46911000  0.43321000  0.61106000
C    0.47082000  0.53303000  0.55511000
C    0.59325000  0.39952000  0.55517000
C    0.59352000  0.50014000  0.60967000
C    0.71783000  0.46679000  0.55487000
C    0.71914000  0.56682000  0.61122000
C    0.84343000  0.40008000  0.55550000
C    0.84332000  0.49994000  0.61088000
C    0.96895000  0.43334000  0.61108000
C    0.96895000  0.53333000  0.55553000
C    0.09376000  0.59997000  0.55554000
C    0.09387000  0.70000000  0.61111000
C    0.21921000  0.66658000  0.55553000
C    0.21909000  0.76666000  0.61112000
C    0.34418000  0.59984000  0.55549000
C    0.34373000  0.69998000  0.61108000
C    0.46877000  0.63321000  0.61105000
C    0.46914000  0.73332000  0.55552000
C    0.59225000  0.60282000  0.55919000
C    0.59399000  0.70049000  0.61117000
C    0.71933000  0.66708000  0.55560000
C    0.71916000  0.76684000  0.61118000
C    0.84395000  0.60026000  0.55584000
C    0.84389000  0.70011000  0.61121000
C    0.96924000  0.63339000  0.61122000
C    0.96914000  0.73333000  0.55556000
C    0.09381000  0.79999000  0.55554000
C    0.09381000  0.90000000  0.61112000
C    0.21910000  0.86666000  0.55554000
C    0.21910000  0.96667000  0.61112000
C    0.34382000  0.79998000  0.55554000
C    0.34381000  0.89999000  0.61112000
C    0.46911000  0.83333000  0.61112000
C    0.46911000  0.93333000  0.55554000
C    0.59386000  0.80020000  0.55557000
C    0.59382000  0.90006000  0.61114000
C    0.71912000  0.86673000  0.55555000
C    0.71910000  0.96669000  0.61113000
C    0.84385000  0.80003000  0.55556000
C    0.84381000  0.90001000  0.61112000
C    0.96910000  0.83333000  0.61113000
C    0.96910000  0.93334000  0.55554000
C    0.09374000  0.00001000  0.66667000
C    0.09381000  0.10000000  0.72221000
C    0.21910000  0.06667000  0.66667000
C    0.21910000  0.16668000  0.72221000
C    0.34374000  0.00000000  0.66667000
C    0.34381000  0.10001000  0.72221000
C    0.46910000  0.03334000  0.72221000
C    0.46910000  0.13333000  0.66667000
C    0.59374000  0.00003000  0.66668000
C    0.59381000  0.10002000  0.72221000
C    0.71910000  0.06668000  0.66667000
C    0.71910000  0.16669000  0.72220000
C    0.84374000  0.00001000  0.66667000
C    0.84380000  0.10001000  0.72222000
C    0.96910000  0.03334000  0.72221000
C    0.96910000  0.13334000  0.66667000
C    0.09373000  0.20000000  0.66666000
C    0.09381000  0.30001000  0.72221000
C    0.21908000  0.26667000  0.66667000
C    0.21910000  0.36668000  0.72219000
C    0.34373000  0.20000000  0.66667000
C    0.34380000  0.30001000  0.72221000
C    0.46910000  0.23334000  0.72221000
C    0.46909000  0.33331000  0.66666000
C    0.59374000  0.20002000  0.66665000
C    0.59380000  0.30004000  0.72217000
C    0.71910000  0.26670000  0.66665000
C    0.71910000  0.36672000  0.72211000
C    0.84374000  0.20002000  0.66666000
C    0.84381000  0.30002000  0.72221000
C    0.96910000  0.23333000  0.72221000
C    0.96909000  0.33335000  0.66667000
C    0.09374000  0.40003000  0.66664000
C    0.09379000  0.49999000  0.72218000
C    0.21922000  0.46670000  0.66660000
C    0.21908000  0.56666000  0.72222000
C    0.34375000  0.40000000  0.66666000
C    0.34386000  0.50001000  0.72215000
C    0.46911000  0.43332000  0.72216000
C    0.46921000  0.53328000  0.66646000
C    0.59368000  0.40001000  0.66645000
C    0.59381000  0.49995000  0.72170000
C    0.71901000  0.46670000  0.66642000
C    0.71916000  0.56667000  0.72227000
C    0.84370000  0.40002000  0.66661000
C    0.84374000  0.49998000  0.72214000
C    0.96908000  0.43332000  0.72219000
C    0.96893000  0.53330000  0.66659000
C    0.09375000  0.59996000  0.66667000
C    0.09380000  0.69999000  0.72222000
C    0.21910000  0.66665000  0.66667000
C    0.21911000  0.76666000  0.72220000
C    0.34368000  0.59995000  0.66667000
C    0.34383000  0.69997000  0.72218000
C    0.46915000  0.63325000  0.72212000
C    0.46912000  0.73329000  0.66661000
C    0.59395000  0.59970000  0.66682000
C    0.59384000  0.69993000  0.72216000
C    0.71913000  0.66669000  0.66664000
C    0.71910000  0.76667000  0.72220000
C    0.84373000  0.60004000  0.66673000
C    0.84380000  0.70001000  0.72222000
C    0.96910000  0.63332000  0.72222000
C    0.96913000  0.73336000  0.66669000
C    0.09374000  0.80000000  0.66667000
C    0.09381000  0.90000000  0.72221000
C    0.21911000  0.86666000  0.66666000
C    0.21910000  0.96667000  0.72221000
C    0.34375000  0.79996000  0.66665000
C    0.34381000  0.89999000  0.72221000
C    0.46910000  0.83331000  0.72219000
C    0.46910000  0.93334000  0.66667000
C    0.59375000  0.80021000  0.66677000
C    0.59380000  0.90007000  0.72225000
C    0.71911000  0.86673000  0.66669000
C    0.71910000  0.96669000  0.72222000
C    0.84376000  0.80005000  0.66670000
C    0.84381000  0.90002000  0.72223000
C    0.96910000  0.83334000  0.72222000
C    0.96910000  0.93334000  0.66667000
C    0.09381000  0.00000000  0.77778000
C    0.09374000  0.10000000  0.83333000
C    0.21910000  0.06667000  0.77779000
C    0.21910000  0.16667000  0.83333000
C    0.34381000  0.00000000  0.77778000
C    0.34374000  0.10001000  0.83333000
C    0.46910000  0.03334000  0.83333000
C    0.46910000  0.13334000  0.77779000
C    0.59380000  0.00003000  0.77779000
C    0.59373000  0.10002000  0.83333000
C    0.71910000  0.06669000  0.77779000
C    0.71910000  0.16668000  0.83333000
C    0.84381000  0.00001000  0.77779000
C    0.84374000  0.10001000  0.83334000
C    0.96910000  0.03334000  0.83334000
C    0.96910000  0.13333000  0.77779000
C    0.09381000  0.20000000  0.77778000
C    0.09374000  0.30000000  0.83333000
C    0.21910000  0.26668000  0.77779000
C    0.21910000  0.36667000  0.83333000
C    0.34380000  0.20001000  0.77778000
C    0.34374000  0.30000000  0.83333000
C    0.46910000  0.23334000  0.83333000
C    0.46910000  0.33334000  0.77778000
C    0.59381000  0.20003000  0.77777000
C    0.59373000  0.30002000  0.83331000
C    0.71910000  0.26670000  0.77776000
C    0.71910000  0.36668000  0.83329000
C    0.84380000  0.20001000  0.77778000
C    0.84374000  0.30000000  0.83333000
C    0.96910000  0.23333000  0.83333000
C    0.96910000  0.33333000  0.77779000
C    0.09381000  0.40000000  0.77778000
C    0.09373000  0.50000000  0.83332000
C    0.21911000  0.46668000  0.77776000
C    0.21911000  0.56667000  0.83333000
C    0.34381000  0.40000000  0.77777000
C    0.34376000  0.50000000  0.83329000
C    0.46911000  0.43333000  0.83331000
C    0.46916000  0.53331000  0.77766000
C    0.59379000  0.40000000  0.77769000
C    0.59376000  0.49998000  0.83312000
C    0.71909000  0.46667000  0.77767000
C    0.71911000  0.56666000  0.83335000
C    0.84380000  0.40000000  0.77776000
C    0.84372000  0.49999000  0.83330000
C    0.96910000  0.43333000  0.83333000
C    0.96908000  0.53332000  0.77776000
C    0.09380000  0.59999000  0.77779000
C    0.09374000  0.70000000  0.83333000
C    0.21911000  0.66666000  0.77779000
C    0.21910000  0.76666000  0.83333000
C    0.34384000  0.60000000  0.77776000
C    0.34375000  0.70000000  0.83332000
C    0.46912000  0.63331000  0.83329000
C    0.46913000  0.73328000  0.77773000
C    0.59384000  0.59994000  0.77784000
C    0.59375000  0.69997000  0.83330000
C    0.71910000  0.66666000  0.77778000
C    0.71910000  0.76666000  0.83333000
C    0.84382000  0.60000000  0.77781000
C    0.84373000  0.70000000  0.83334000
C    0.96910000  0.63333000  0.83334000
C    0.96909000  0.73333000  0.77780000
C    0.09381000  0.80000000  0.77778000
C    0.09374000  0.90000000  0.83333000
C    0.21910000  0.86667000  0.77779000
C    0.21910000  0.96667000  0.83333000
C    0.34381000  0.79999000  0.77778000
C    0.34374000  0.90000000  0.83333000
C    0.46911000  0.83332000  0.83332000
C    0.46910000  0.93333000  0.77779000
C    0.59381000  0.79997000  0.77777000
C    0.59374000  0.90000000  0.83333000
C    0.71910000  0.86667000  0.77779000
C    0.71910000  0.96667000  0.83333000
C    0.84380000  0.80000000  0.77779000
C    0.84373000  0.90001000  0.83334000
C    0.96910000  0.83334000  0.83334000
C    0.96910000  0.93334000  0.77780000
C    0.09381000  0.00000000  0.88888000
C    0.09381000  0.10000000  0.94445000
C    0.21910000  0.06667000  0.88887000
C    0.21910000  0.16667000  0.94446000
C    0.34380000  0.00000000  0.88888000
C    0.34380000  0.10000000  0.94445000
C    0.46910000  0.03333000  0.94446000
C    0.46910000  0.13334000  0.88888000
C    0.59380000  0.00000000  0.88888000
C    0.59380000  0.10001000  0.94445000
C    0.71910000  0.06668000  0.88887000
C    0.71910000  0.16667000  0.94446000
C    0.84381000  0.00001000  0.88888000
C    0.84381000  0.10000000  0.94445000
C    0.96910000  0.03333000  0.94446000
C    0.96910000  0.13333000  0.88888000
C    0.09381000  0.20000000  0.88888000
C    0.09381000  0.30000000  0.94445000
C    0.21910000  0.26667000  0.88887000
C    0.21910000  0.36667000  0.94446000
C    0.34380000  0.20000000  0.88888000
C    0.34381000  0.30000000  0.94445000
C    0.46910000  0.23333000  0.94446000
C    0.46910000  0.33333000  0.88887000
C    0.59380000  0.20001000  0.88888000
C    0.59380000  0.30001000  0.94444000
C    0.71910000  0.26668000  0.88887000
C    0.71910000  0.36667000  0.94445000
C    0.84381000  0.20000000  0.88888000
C    0.84381000  0.30000000  0.94445000
C    0.96910000  0.23333000  0.94446000
C    0.96910000  0.33333000  0.88888000
C    0.09381000  0.40000000  0.88888000
C    0.09381000  0.50000000  0.94445000
C    0.21911000  0.46667000  0.88887000
C    0.21910000  0.56667000  0.94446000
C    0.34381000  0.40000000  0.88888000
C    0.34382000  0.50000000  0.94444000
C    0.46910000  0.43333000  0.94445000
C    0.46913000  0.53332000  0.88882000
C    0.59380000  0.40000000  0.88884000
C    0.59381000  0.49999000  0.94440000
C    0.71909000  0.46667000  0.88883000
C    0.71910000  0.56667000  0.94446000
C    0.84380000  0.40000000  0.88887000
C    0.84380000  0.50000000  0.94444000
C    0.96910000  0.43333000  0.94446000
C    0.96909000  0.53332000  0.88886000
C    0.09381000  0.59999000  0.88888000
C    0.09381000  0.70000000  0.94445000
C    0.21910000  0.66667000  0.88888000
C    0.21910000  0.76667000  0.94446000
C    0.34382000  0.60000000  0.88887000
C    0.34381000  0.70000000  0.94445000
C    0.46910000  0.63332000  0.94444000
C    0.46911000  0.73332000  0.88885000
C    0.59381000  0.59997000  0.88889000
C    0.59381000  0.69999000  0.94444000
C    0.71910000  0.66667000  0.88887000
C    0.71910000  0.76667000  0.94446000
C    0.84381000  0.60000000  0.88889000
C    0.84381000  0.70000000  0.94445000
C    0.96910000  0.63333000  0.94446000
C    0.96910000  0.73333000  0.88888000
C    0.09380000  0.80000000  0.88888000
C    0.09381000  0.90000000  0.94445000
C    0.21910000  0.86667000  0.88888000
C    0.21910000  0.96667000  0.94446000
C    0.34381000  0.80000000  0.88888000
C    0.34380000  0.90000000  0.94445000
C    0.46910000  0.83333000  0.94445000
C    0.46910000  0.93333000  0.88887000
C    0.59381000  0.79999000  0.88887000
C    0.59381000  0.90000000  0.94445000
C    0.71910000  0.86667000  0.88888000
C    0.71910000  0.96667000  0.94446000
C    0.84380000  0.80000000  0.88888000
C    0.84381000  0.90000000  0.94445000
C    0.96910000  0.83333000  0.94446000
C    0.96910000  0.93333000  0.88888000
Si    0.00004000  0.99999000  0.00000000
Si    0.00006000  0.09999000  0.05556000
Si    0.12509000  0.06665000  0.00000000
Si    0.12508000  0.16666000  0.05555000
Si    0.25004000  0.00000000  0.00000000
Si    0.25006000  0.09999000  0.05556000
Si    0.37508000  0.03332000  0.05555000
Si    0.37509000  0.13334000  0.00000000
Si    0.50004000  0.99999000  0.00000000
Si    0.50006000  0.09999000  0.05556000
Si    0.62509000  0.06665000  0.00000000
Si    0.62508000  0.16667000  0.05555000
Si    0.75004000  0.00000000  0.00000000
Si    0.75006000  0.09999000  0.05556000