&CONTROL
calculation = 'scf'
verbosity = 'high'
tstress = .true.
wf_collect = .true.
/
&SYSTEM
input_dft = 'PBE'
ibrav = 0
nosym = .true.
ecutwfc = 40
tot_charge = 0
nspin = 2
tot_magnetization = 2
nat = 1438
ntyp = 2
/
&ELECTRONS
conv_thr = 1D-08
mixing_mode = 'plain'
mixing_beta = 0.7
diagonalization = 'david'
startingpot = 'atomic'
startingwfc = 'atomic+random'
/
K_POINTS automatic
1 1 1 0 0 0
CELL_PARAMETERS angstrom
20.272033  0.000000  0.000000
0.000000  26.811944  0.000000
0.000000  0.000000  27.863846
ATOMIC_SPECIES
C  12.01099968  C.pbe-tm-gipaw.UPF
Si  28.08499908  Si.pbe-tm-gipaw.UPF
ATOMIC_POSITIONS crystal
C    0.09376000  0.00000000  0.00000000
C    0.09378000  0.10002000  0.05556000
C    0.21908000  0.06665000  0.00000000
C    0.21916000  0.16667000  0.05555000
C    0.34376000  0.00000000  0.00000000
C    0.34376000  0.10001000  0.05555000
C    0.46910000  0.03335000  0.05555000
C    0.46910000  0.13331000  0.00000000
C    0.59376000  0.00000000  0.00000000
C    0.59378000  0.10002000  0.05556000
C    0.71908000  0.06666000  0.00000000
C    0.71916000  0.16668000  0.05556000
C    0.84376000  0.00000000  0.00000000
C    0.84376000  0.10001000  0.05556000
C    0.96910000  0.03336000  0.05556000
C    0.96910000  0.13332000  0.00000000
C    0.09379000  0.20002000  0.00000000
C    0.09379000  0.29997000  0.05556000
C    0.21910000  0.26668000  0.00000000
C    0.21910000  0.36668000  0.05555000
C    0.34379000  0.20002000  0.00000000
C    0.34379000  0.29997000  0.05555000
C    0.46910000  0.23332000  0.05555000
C    0.46916000  0.33332000  0.00000000
C    0.59379000  0.20003000  0.00000000
C    0.59379000  0.29998000  0.05557000
C    0.71910000  0.26668000  0.00000000
C    0.71910000  0.36669000  0.05557000
C    0.84379000  0.20003000  0.00000000
C    0.84379000  0.29998000  0.05556000
C    0.96910000  0.23332000  0.05556000
C    0.96916000  0.33333000  0.00000000
C    0.09376000  0.39999000  0.00000000
C    0.09376000  0.50000000  0.05556000
C    0.21910000  0.46664000  0.00000000
C    0.21909000  0.56666000  0.05556000
C    0.34378000  0.39998000  0.00000000
C    0.34377000  0.50000000  0.05556000
C    0.46909000  0.43334000  0.05555000
C    0.46911000  0.53335000  0.00000000
C    0.59376000  0.39999000  0.00000000
C    0.59377000  0.49999000  0.05561000
C    0.71909000  0.46664000  0.00000000
C    0.71908000  0.56665000  0.05556000
C    0.84377000  0.39998000  0.00000000
C    0.84375000  0.50000000  0.05556000
C    0.96908000  0.43334000  0.05556000
C    0.96909000  0.53336000  0.00000000
C    0.09378000  0.60002000  0.00000000
C    0.09379000  0.70002000  0.05556000
C    0.21916000  0.66667000  0.00000000
C    0.21911000  0.76668000  0.05556000
C    0.34378000  0.60001000  0.00000000
C    0.34380000  0.70003000  0.05556000
C    0.46911000  0.63331000  0.05557000
C    0.46911000  0.73331000  0.00000000
C    0.59378000  0.60000000  0.00000000
C    0.59379000  0.70001000  0.05557000
C    0.71915000  0.66667000  0.00000000
C    0.71910000  0.76667000  0.05556000
C    0.84376000  0.60001000  0.00000000
C    0.84379000  0.70003000  0.05556000
C    0.96910000  0.63332000  0.05556000
C    0.96910000  0.73332000  0.00000000
C    0.09379000  0.79997000  0.00000000
C    0.09376000  0.89999000  0.05556000
C    0.21910000  0.86668000  0.00000000
C    0.21910000  0.96664000  0.05555000
C    0.34379000  0.79997000  0.00000000
C    0.34378000  0.89998000  0.05556000
C    0.46916000  0.83332000  0.05556000
C    0.46909000  0.93334000  0.00000000
C    0.59379000  0.79996000  0.00000000
C    0.59376000  0.89999000  0.05556000
C    0.71910000  0.86668000  0.00000000
C    0.71910000  0.96664000  0.05556000
C    0.84378000  0.79997000  0.00000000
C    0.84377000  0.89998000  0.05556000
C    0.96916000  0.83332000  0.05556000
C    0.96908000  0.93334000  0.00000000
C    0.09376000  0.00000000  0.11111000
C    0.09378000  0.10002000  0.16667000
C    0.21908000  0.06665000  0.11111000
C    0.21916000  0.16667000  0.16667000
C    0.34376000  0.00000000  0.11111000
C    0.34376000  0.10000000  0.16666000
C    0.46910000  0.03336000  0.16666000
C    0.46910000  0.13331000  0.11111000
C    0.59376000  0.00000000  0.11112000
C    0.59378000  0.10003000  0.16668000
C    0.71908000  0.06666000  0.11112000
C    0.71916000  0.16669000  0.16668000
C    0.84376000  0.00000000  0.11111000
C    0.84376000  0.10001000  0.16667000
C    0.96910000  0.03336000  0.16667000
C    0.96910000  0.13332000  0.11111000
C    0.09379000  0.20002000  0.11111000
C    0.09379000  0.29997000  0.16667000
C    0.21910000  0.26668000  0.11111000
C    0.21910000  0.36668000  0.16666000
C    0.34379000  0.20002000  0.11111000
C    0.34378000  0.29997000  0.16665000
C    0.46910000  0.23331000  0.16665000
C    0.46916000  0.33332000  0.11109000
C    0.59379000  0.20003000  0.11112000
C    0.59379000  0.29999000  0.16670000
C    0.71910000  0.26669000  0.11112000
C    0.71910000  0.36669000  0.16671000
C    0.84379000  0.20003000  0.11111000
C    0.84379000  0.29998000  0.16667000
C    0.96910000  0.23332000  0.16667000
C    0.96916000  0.33333000  0.11111000
C    0.09376000  0.39999000  0.11111000
C    0.09377000  0.50000000  0.16667000
C    0.21911000  0.46665000  0.11112000
C    0.21911000  0.56666000  0.16669000
C    0.34378000  0.39998000  0.11111000
C    0.34379000  0.50000000  0.16669000
C    0.46910000  0.43332000  0.16664000
C    0.46913000  0.53335000  0.11111000
C    0.59376000  0.40000000  0.11116000
C    0.59378000  0.49998000  0.16690000
C    0.71909000  0.46664000  0.11115000
C    0.71907000  0.56665000  0.16669000
C    0.84377000  0.39998000  0.11112000
C    0.84374000  0.49999000  0.16668000
C    0.96908000  0.43334000  0.16667000
C    0.96909000  0.53336000  0.11112000
C    0.09378000  0.60002000  0.11112000
C    0.09380000  0.70002000  0.16667000
C    0.21917000  0.66667000  0.11112000
C    0.21911000  0.76667000  0.16667000
C    0.34379000  0.60001000  0.11114000
C    0.34381000  0.70001000  0.16669000
C    0.46912000  0.63330000  0.16673000
C    0.46911000  0.73331000  0.11114000
C    0.59378000  0.59999000  0.11117000
C    0.59379000  0.69999000  0.16673000
C    0.71915000  0.66667000  0.11112000
C    0.71910000  0.76667000  0.16667000
C    0.84376000  0.60000000  0.11112000
C    0.84378000  0.70002000  0.16667000
C    0.96911000  0.63331000  0.16667000
C    0.96910000  0.73332000  0.11111000
C    0.09379000  0.79997000  0.11111000
C    0.09376000  0.89999000  0.16667000
C    0.21910000  0.86668000  0.11111000
C    0.21910000  0.96664000  0.16667000
C    0.34379000  0.79997000  0.11112000
C    0.34378000  0.89997000  0.16667000
C    0.46917000  0.83330000  0.16669000
C    0.46909000  0.93333000  0.11111000
C    0.59379000  0.79996000  0.11113000
C    0.59377000  0.89998000  0.16669000
C    0.71910000  0.86668000  0.11111000
C    0.71910000  0.96664000  0.16667000
C    0.84378000  0.79997000  0.11111000
C    0.84377000  0.89998000  0.16667000
C    0.96916000  0.83332000  0.16667000
C    0.96908000  0.93334000  0.11111000
C    0.09376000  0.00000000  0.22222000
C    0.09378000  0.10002000  0.27778000
C    0.21909000  0.06666000  0.22222000
C    0.21917000  0.16668000  0.27779000
C    0.34377000  0.00000000  0.22222000
C    0.34377000  0.10002000  0.27778000
C    0.46910000  0.03336000  0.27777000
C    0.46911000  0.13331000  0.22221000
C    0.59376000  0.00000000  0.22225000
C    0.59378000  0.10008000  0.27781000
C    0.71908000  0.06667000  0.22223000
C    0.71915000  0.16671000  0.27780000
C    0.84376000  0.00000000  0.22223000
C    0.84376000  0.10002000  0.27778000
C    0.96909000  0.03336000  0.27778000
C    0.96910000  0.13332000  0.22222000
C    0.09379000  0.20002000  0.22222000
C    0.09378000  0.29997000  0.27779000
C    0.21910000  0.26667000  0.22222000
C    0.21907000  0.36666000  0.27774000
C    0.34379000  0.20002000  0.22222000
C    0.34379000  0.29996000  0.27775000
C    0.46911000  0.23330000  0.27774000
C    0.46916000  0.33328000  0.22215000
C    0.59379000  0.20006000  0.22225000
C    0.59379000  0.30004000  0.27785000
C    0.71910000  0.26671000  0.22225000
C    0.71909000  0.36673000  0.27788000
C    0.84379000  0.20003000  0.22222000
C    0.84378000  0.29999000  0.27778000
C    0.96910000  0.23333000  0.27778000
C    0.96916000  0.33333000  0.22223000
C    0.09376000  0.40000000  0.22222000
C    0.09373000  0.50001000  0.27776000
C    0.21912000  0.46665000  0.22223000
C    0.21914000  0.56665000  0.27782000
C    0.34378000  0.39997000  0.22220000
C    0.34382000  0.49999000  0.27784000
C    0.46910000  0.43325000  0.27769000
C    0.46918000  0.53331000  0.22218000
C    0.59376000  0.40000000  0.22234000
C    0.59383000  0.49998000  0.27836000
C    0.71911000  0.46664000  0.22231000
C    0.71907000  0.56666000  0.27780000
C    0.84377000  0.39998000  0.22224000
C    0.84373000  0.50000000  0.27780000
C    0.96906000  0.43335000  0.27778000
C    0.96907000  0.53336000  0.22222000
C    0.09380000  0.60001000  0.22224000
C    0.09381000  0.70001000  0.27779000
C    0.21920000  0.66666000  0.22224000
C    0.21913000  0.76665000  0.27779000
C    0.34383000  0.59999000  0.22229000
C    0.34385000  0.69998000  0.27783000
C    0.46917000  0.63325000  0.27792000
C    0.46913000  0.73329000  0.22227000
C    0.59377000  0.59996000  0.22236000
C    0.59378000  0.69995000  0.27790000
C    0.71914000  0.66666000  0.22224000
C    0.71909000  0.76666000  0.27780000
C    0.84375000  0.60000000  0.22223000
C    0.84377000  0.70003000  0.27778000
C    0.96910000  0.63332000  0.27777000
C    0.96911000  0.73332000  0.22223000
C    0.09380000  0.79997000  0.22223000
C    0.09377000  0.89999000  0.27778000
C    0.21911000  0.86667000  0.22222000
C    0.21910000  0.96664000  0.27778000
C    0.34381000  0.79995000  0.22224000
C    0.34379000  0.89998000  0.27778000
C    0.46919000  0.83335000  0.27778000
C    0.46909000  0.93335000  0.22222000
C    0.59379000  0.79993000  0.22228000
C    0.59377000  0.89994000  0.27782000
C    0.71910000  0.86667000  0.22223000
C    0.71909000  0.96663000  0.27779000
C    0.84378000  0.79997000  0.22223000
C    0.84377000  0.89998000  0.27778000
C    0.96915000  0.83332000  0.27778000
C    0.96908000  0.93334000  0.22222000
C    0.09376000  0.00000000  0.33333000
C    0.09378000  0.10002000  0.38889000
C    0.21909000  0.06666000  0.33334000
C    0.21919000  0.16670000  0.38890000
C    0.34377000  0.00001000  0.33333000
C    0.34378000  0.10004000  0.38890000
C    0.46910000  0.03339000  0.38889000
C    0.46912000  0.13331000  0.33331000
C    0.59376000  0.00001000  0.33335000
C    0.59377000  0.10007000  0.38890000
C    0.71908000  0.06666000  0.33334000
C    0.71914000  0.16669000  0.38890000
C    0.84376000  0.00000000  0.33333000
C    0.84376000  0.10001000  0.38889000
C    0.96910000  0.03336000  0.38889000
C    0.96910000  0.13332000  0.33333000
C    0.09379000  0.20003000  0.33334000
C    0.09375000  0.29995000  0.38889000
C    0.21912000  0.26668000  0.33334000
C    0.21891000  0.36665000  0.38882000
C    0.34382000  0.20004000  0.33334000
C    0.34385000  0.30003000  0.38891000
C    0.46917000  0.23329000  0.38881000
C    0.46919000  0.33327000  0.33318000
C    0.59380000  0.20019000  0.33342000
C    0.59385000  0.30039000  0.38915000
C    0.71911000  0.26674000  0.33337000
C    0.71912000  0.36682000  0.38903000
C    0.84377000  0.20004000  0.33333000
C    0.84375000  0.30000000  0.38890000
C    0.96908000  0.23332000  0.38889000
C    0.96912000  0.33332000  0.33334000
C    0.09366000  0.39997000  0.33331000
C    0.09369000  0.50000000  0.38885000
C    0.21889000  0.46659000  0.33326000
C    0.21894000  0.56664000  0.38891000
C    0.34373000  0.39993000  0.33327000
C    0.34308000  0.49979000  0.38892000
C    0.46885000  0.43320000  0.38866000
C    0.46939000  0.53305000  0.33318000
C    0.59369000  0.40011000  0.33357000
C    0.59362000  0.50023000  0.39031000
C    0.71913000  0.46668000  0.33354000
C    0.71912000  0.56667000  0.38886000
C    0.84380000  0.39999000  0.33336000
C    0.84393000  0.50003000  0.38892000
C    0.96910000  0.43334000  0.38889000
C    0.96911000  0.53337000  0.33331000
C    0.09376000  0.60002000  0.33332000
C    0.09375000  0.70003000  0.38886000
C    0.21924000  0.66663000  0.33336000
C    0.21912000  0.76667000  0.38888000
C    0.34393000  0.59992000  0.33348000
C    0.34385000  0.69998000  0.38893000
C    0.46943000  0.63362000  0.38909000
C    0.46917000  0.73341000  0.33336000
C    0.59375000  0.59991000  0.33354000
C    0.59385000  0.69961000  0.38920000
C    0.71913000  0.66665000  0.33335000
C    0.71911000  0.76661000  0.38894000
C    0.84378000  0.60002000  0.33332000
C    0.84375000  0.70001000  0.38891000
C    0.96911000  0.63333000  0.38887000
C    0.96908000  0.73332000  0.33333000
C    0.09379000  0.79997000  0.33333000
C    0.09376000  0.89999000  0.38889000
C    0.21911000  0.86667000  0.33333000
C    0.21910000  0.96664000  0.38889000
C    0.34381000  0.79997000  0.33334000
C    0.34378000  0.89999000  0.38889000
C    0.46917000  0.83337000  0.38890000
C    0.46909000  0.93336000  0.33333000
C    0.59381000  0.79982000  0.33345000
C    0.59376000  0.89996000  0.38891000
C    0.71910000  0.86665000  0.33336000
C    0.71909000  0.96663000  0.38889000
C    0.84377000  0.79997000  0.33335000
C    0.84377000  0.89998000  0.38889000
C    0.96915000  0.83332000  0.38889000
C    0.96908000  0.93334000  0.33333000
C    0.09376000  0.00000000  0.44444000
C    0.09379000  0.10003000  0.50000000
C    0.21909000  0.06666000  0.44445000
C    0.21920000  0.16670000  0.50000000
C    0.34376000  0.00001000  0.44444000
C    0.34378000  0.10004000  0.50000000
C    0.46910000  0.03339000  0.50000000
C    0.46913000  0.13338000  0.44445000
C    0.59376000  0.00001000  0.44445000
C    0.59377000  0.10007000  0.50000000
C    0.71908000  0.06666000  0.44444000
C    0.71914000  0.16668000  0.50000000
C    0.84376000  0.00000000  0.44444000
C    0.84376000  0.10001000  0.50000000
C    0.96910000  0.03336000  0.50000000
C    0.96911000  0.13333000  0.44444000
C    0.09381000  0.20004000  0.44445000
C    0.09377000  0.29996000  0.50000000
C    0.21917000  0.26672000  0.44446000
C    0.21897000  0.36670000  0.50000000
C    0.34385000  0.20009000  0.44446000
C    0.34398000  0.30013000  0.50000000
C    0.46918000  0.23349000  0.50000000
C    0.46947000  0.33335000  0.44407000
C    0.59379000  0.20014000  0.44447000
C    0.59376000  0.30019000  0.50000000
C    0.71909000  0.26669000  0.44446000
C    0.71913000  0.36665000  0.50000000
C    0.84377000  0.20003000  0.44444000
C    0.84380000  0.29996000  0.50000000
C    0.96910000  0.23331000  0.50000000
C    0.96915000  0.33330000  0.44444000
C    0.09368000  0.39995000  0.44442000
C    0.09361000  0.50000000  0.50000000
C    0.21866000  0.46661000  0.44442000
C    0.21868000  0.56669000  0.50000000
C    0.34321000  0.40009000  0.44433000
C    0.34301000  0.49999000  0.50000000
C    0.46608000  0.42866000  0.50000000
C    0.46602000  0.53569000  0.44050000
C    0.59363000  0.40114000  0.44533000
C    0.71994000  0.46681000  0.44469000
C    0.71991000  0.56635000  0.50000000
C    0.84393000  0.40000000  0.44448000
C    0.84467000  0.50000000  0.50000000
C    0.96927000  0.43329000  0.50000000
C    0.96929000  0.53338000  0.44440000
C    0.09370000  0.60005000  0.44443000
C    0.09367000  0.70005000  0.50000000
C    0.21891000  0.66675000  0.44445000
C    0.21907000  0.76671000  0.50000000
C    0.34318000  0.60006000  0.44460000
C    0.34373000  0.70008000  0.50000000
C    0.46889000  0.63355000  0.50000000
C    0.46911000  0.73345000  0.44448000
C    0.59363000  0.59862000  0.44495000
C    0.59371000  0.69978000  0.50000000
C    0.71919000  0.66643000  0.44451000
C    0.71910000  0.76655000  0.50000000
C    0.84392000  0.59996000  0.44444000
C    0.84381000  0.70000000  0.50000000
C    0.96911000  0.63331000  0.50000000
C    0.96908000  0.73332000  0.44444000
C    0.09378000  0.79997000  0.44444000
C    0.09377000  0.89999000  0.50000000
C    0.21910000  0.86668000  0.44444000
C    0.21910000  0.96664000  0.50000000
C    0.34379000  0.80000000  0.44444000
C    0.34377000  0.90000000  0.50000000
C    0.46915000  0.83341000  0.50000000
C    0.46909000  0.93338000  0.44444000
C    0.59378000  0.79990000  0.44449000
C    0.59376000  0.89997000  0.50000000
C    0.71910000  0.86664000  0.44446000
C    0.71910000  0.96663000  0.50000000
C    0.84378000  0.79997000  0.44446000
C    0.84377000  0.89998000  0.50000000
C    0.96916000  0.83332000  0.50000000
C    0.96908000  0.93334000  0.44444000
C    0.09376000  0.00000000  0.55555000
C    0.09378000  0.10002000  0.61111000
C    0.21909000  0.06666000  0.55555000
C    0.21919000  0.16670000  0.61109000
C    0.34376000  0.00001000  0.55555000
C    0.34378000  0.10004000  0.61110000
C    0.46910000  0.03339000  0.61111000
C    0.46913000  0.13338000  0.55555000
C    0.59376000  0.00001000  0.55555000
C    0.59377000  0.10007000  0.61109000
C    0.71908000  0.06666000  0.55555000
C    0.71914000  0.16669000  0.61110000
C    0.84376000  0.00000000  0.55555000
C    0.84376000  0.10001000  0.61111000
C    0.96910000  0.03336000  0.61111000
C    0.96911000  0.13333000  0.55555000
C    0.09381000  0.20004000  0.55555000
C    0.09375000  0.29995000  0.61111000
C    0.21917000  0.26672000  0.55554000
C    0.21891000  0.36665000  0.61118000
C    0.34385000  0.20009000  0.55554000
C    0.34385000  0.30003000  0.61109000
C    0.46917000  0.23329000  0.61118000
C    0.46947000  0.33335000  0.55593000
C    0.59379000  0.20014000  0.55553000
C    0.59385000  0.30039000  0.61085000
C    0.71909000  0.26669000  0.55553000
C    0.71912000  0.36682000  0.61097000
C    0.84377000  0.20003000  0.55556000
C    0.84375000  0.30000000  0.61110000
C    0.96908000  0.23332000  0.61111000
C    0.96915000  0.33330000  0.55556000
C    0.09368000  0.39995000  0.55558000
C    0.09369000  0.50000000  0.61115000
C    0.21866000  0.46661000  0.55557000
C    0.21894000  0.56664000  0.61109000
C    0.34321000  0.40009000  0.55567000
C    0.34308000  0.49979000  0.61107000
C    0.46885000  0.43320000  0.61134000
C    0.46602000  0.53569000  0.55950000
C    0.59363000  0.40115000  0.55467000
C    0.59362000  0.50023000  0.60969000
C    0.71994000  0.46681000  0.55530000
C    0.71912000  0.56667000  0.61114000
C    0.84393000  0.40000000  0.55552000
C    0.84393000  0.50003000  0.61108000
C    0.96910000  0.43334000  0.61111000
C    0.96929000  0.53338000  0.55560000
C    0.09370000  0.60005000  0.55557000
C    0.09375000  0.70003000  0.61113000
C    0.21891000  0.66675000  0.55555000
C    0.21912000  0.76667000  0.61112000
C    0.34318000  0.60006000  0.55540000
C    0.34385000  0.69998000  0.61107000
C    0.46943000  0.63362000  0.61091000
C    0.46911000  0.73345000  0.55552000
C    0.59363000  0.59862000  0.55504000
C    0.59385000  0.69961000  0.61080000
C    0.71919000  0.66643000  0.55548000
C    0.71911000  0.76661000  0.61106000
C    0.84392000  0.59996000  0.55556000
C    0.84375000  0.70001000  0.61109000
C    0.96911000  0.63333000  0.61113000
C    0.96908000  0.73332000  0.55556000
C    0.09378000  0.79997000  0.55556000
C    0.09376000  0.89999000  0.61111000
C    0.21910000  0.86668000  0.55556000
C    0.21910000  0.96664000  0.61111000
C    0.34379000  0.80000000  0.55556000
C    0.34378000  0.89999000  0.61111000
C    0.46917000  0.83337000  0.61110000
C    0.46909000  0.93338000  0.55556000
C    0.59378000  0.79990000  0.55551000
C    0.59376000  0.89996000  0.61108000
C    0.71910000  0.86664000  0.55554000
C    0.71909000  0.96663000  0.61110000
C    0.84378000  0.79997000  0.55554000
C    0.84377000  0.89998000  0.61111000
C    0.96915000  0.83332000  0.61111000
C    0.96908000  0.93334000  0.55555000
C    0.09376000  0.00000000  0.66667000
C    0.09378000  0.10002000  0.72222000
C    0.21909000  0.06666000  0.66666000
C    0.21917000  0.16668000  0.72221000
C    0.34377000  0.00001000  0.66666000
C    0.34377000  0.10002000  0.72222000
C    0.46910000  0.03336000  0.72223000
C    0.46912000  0.13331000  0.66668000
C    0.59376000  0.00001000  0.66665000
C    0.59378000  0.10008000  0.72219000
C    0.71908000  0.06666000  0.66666000
C    0.71915000  0.16671000  0.72220000
C    0.84376000  0.00000000  0.66666000
C    0.84376000  0.10002000  0.72222000
C    0.96909000  0.03336000  0.72222000
C    0.96910000  0.13332000  0.66667000
C    0.09379000  0.20003000  0.66666000
C    0.09378000  0.29997000  0.72221000
C    0.21912000  0.26668000  0.66666000
C    0.21907000  0.36666000  0.72225000
C    0.34382000  0.20004000  0.66666000
C    0.34379000  0.29996000  0.72225000
C    0.46911000  0.23330000  0.72226000
C    0.46919000  0.33327000  0.66681000
C    0.59380000  0.20019000  0.66658000
C    0.59379000  0.30004000  0.72215000
C    0.71911000  0.26675000  0.66663000
C    0.71909000  0.36673000  0.72212000
C    0.84377000  0.20004000  0.66666000
C    0.84378000  0.29999000  0.72222000
C    0.96910000  0.23333000  0.72222000
C    0.96912000  0.33332000  0.66666000
C    0.09366000  0.39997000  0.66669000
C    0.09373000  0.50001000  0.72224000
C    0.21889000  0.46659000  0.66674000
C    0.21914000  0.56665000  0.72218000
C    0.34373000  0.39993000  0.66673000
C    0.34382000  0.49999000  0.72216000
C    0.46910000  0.43325000  0.72231000
C    0.46939000  0.53305000  0.66682000
C    0.59369000  0.40011000  0.66643000
C    0.59383000  0.49998000  0.72164000
C    0.71913000  0.46668000  0.66646000
C    0.71907000  0.56666000  0.72219000
C    0.84380000  0.39999000  0.66664000
C    0.84373000  0.50000000  0.72220000
C    0.96906000  0.43335000  0.72222000
C    0.96911000  0.53337000  0.66669000
C    0.09376000  0.60002000  0.66668000
C    0.09381000  0.70001000  0.72221000
C    0.21924000  0.66663000  0.66664000
C    0.21913000  0.76665000  0.72221000
C    0.34393000  0.59992000  0.66652000
C    0.34385000  0.69998000  0.72217000
C    0.46917000  0.63325000  0.72207000
C    0.46917000  0.73341000  0.66664000
C    0.59375000  0.59991000  0.66646000
C    0.59378000  0.69995000  0.72210000
C    0.71913000  0.66665000  0.66665000
C    0.71909000  0.76666000  0.72220000
C    0.84378000  0.60002000  0.66668000
C    0.84377000  0.70003000  0.72221000
C    0.96910000  0.63332000  0.72223000
C    0.96908000  0.73332000  0.66667000
C    0.09379000  0.79997000  0.66667000
C    0.09377000  0.89999000  0.72222000
C    0.21911000  0.86667000  0.66667000
C    0.21910000  0.96664000  0.72222000
C    0.34381000  0.79997000  0.66666000
C    0.34379000  0.89998000  0.72222000
C    0.46919000  0.83335000  0.72221000
C    0.46909000  0.93336000  0.66667000
C    0.59381000  0.79982000  0.66655000
C    0.59377000  0.89994000  0.72218000
C    0.71910000  0.86665000  0.66664000
C    0.71909000  0.96663000  0.72221000
C    0.84377000  0.79997000  0.66665000
C    0.84377000  0.89998000  0.72221000
C    0.96915000  0.83332000  0.72222000
C    0.96908000  0.93334000  0.66666000
C    0.09376000  0.00000000  0.77778000
C    0.09378000  0.10002000  0.83333000
C    0.21909000  0.06666000  0.77778000
C    0.21916000  0.16667000  0.83333000
C    0.34377000  0.00000000  0.77778000
C    0.34376000  0.10000000  0.83334000
C    0.46910000  0.03336000  0.83334000
C    0.46911000  0.13331000  0.77779000
C    0.59376000  0.00000000  0.77775000
C    0.59378000  0.10003000  0.83332000
C    0.71908000  0.06667000  0.77776000
C    0.71916000  0.16669000  0.83332000
C    0.84376000  0.00000000  0.77777000
C    0.84376000  0.10001000  0.83333000
C    0.96910000  0.03336000  0.83333000
C    0.96910000  0.13332000  0.77778000
C    0.09379000  0.20002000  0.77777000
C    0.09379000  0.29997000  0.83333000
C    0.21910000  0.26667000  0.77778000
C    0.21910000  0.36668000  0.83334000
C    0.34379000  0.20002000  0.77778000
C    0.34378000  0.29997000  0.83335000
C    0.46910000  0.23331000  0.83335000
C    0.46916000  0.33328000  0.77785000
C    0.59379000  0.20006000  0.77775000
C    0.59379000  0.29999000  0.83330000
C    0.71910000  0.26671000  0.77775000
C    0.71910000  0.36669000  0.83329000
C    0.84379000  0.20003000  0.77777000
C    0.84379000  0.29998000  0.83333000
C    0.96910000  0.23332000  0.83333000
C    0.96916000  0.33333000  0.77777000
C    0.09376000  0.40000000  0.77778000
C    0.09377000  0.50000000  0.83333000
C    0.21912000  0.46665000  0.77777000
C    0.21911000  0.56666000  0.83331000
C    0.34378000  0.39997000  0.77780000
C    0.34379000  0.50000000  0.83331000
C    0.46910000  0.43332000  0.83336000
C    0.46918000  0.53331000  0.77782000
C    0.59376000  0.40000000  0.77766000
C    0.59378000  0.49998000  0.83310000
C    0.71911000  0.46664000  0.77768000
C    0.71907000  0.56665000  0.83331000
C    0.84377000  0.39998000  0.77776000
C    0.84374000  0.49999000  0.83332000
C    0.96908000  0.43334000  0.83333000
C    0.96907000  0.53336000  0.77778000
C    0.09380000  0.60001000  0.77776000
C    0.09380000  0.70002000  0.83333000
C    0.21920000  0.66666000  0.77775000
C    0.21911000  0.76667000  0.83333000
C    0.34383000  0.59999000  0.77771000
C    0.34381000  0.70001000  0.83331000
C    0.46912000  0.63330000  0.83327000
C    0.46913000  0.73329000  0.77773000
C    0.59377000  0.59996000  0.77764000
C    0.59379000  0.69999000  0.83327000
C    0.71914000  0.66666000  0.77776000
C    0.71910000  0.76667000  0.83332000
C    0.84375000  0.60000000  0.77777000
C    0.84378000  0.70002000  0.83333000
C    0.96911000  0.63331000  0.83333000
C    0.96911000  0.73332000  0.77777000
C    0.09380000  0.79997000  0.77777000
C    0.09376000  0.89999000  0.83333000
C    0.21911000  0.86667000  0.77778000
C    0.21910000  0.96664000  0.83333000
C    0.34381000  0.79995000  0.77776000
C    0.34378000  0.89997000  0.83333000
C    0.46917000  0.83330000  0.83331000
C    0.46909000  0.93335000  0.77778000
C    0.59379000  0.79993000  0.77772000
C    0.59377000  0.89998000  0.83331000
C    0.71910000  0.86667000  0.77777000
C    0.71910000  0.96664000  0.83333000
C    0.84378000  0.79997000  0.77777000
C    0.84377000  0.89998000  0.83333000
C    0.96916000  0.83332000  0.83333000
C    0.96908000  0.93334000  0.77777000
C    0.09376000  0.00000000  0.88889000
C    0.09378000  0.10002000  0.94444000
C    0.21908000  0.06665000  0.88889000
C    0.21916000  0.16667000  0.94445000
C    0.34376000  0.00000000  0.88889000
C    0.34376000  0.10001000  0.94445000
C    0.46910000  0.03335000  0.94444000
C    0.46910000  0.13331000  0.88889000
C    0.59376000  0.00000000  0.88888000
C    0.59378000  0.10002000  0.94444000
C    0.71908000  0.06666000  0.88888000
C    0.71916000  0.16668000  0.94444000
C    0.84376000  0.00000000  0.88889000
C    0.84376000  0.10001000  0.94444000
C    0.96910000  0.03336000  0.94444000
C    0.96910000  0.13332000  0.88889000
C    0.09379000  0.20002000  0.88889000
C    0.09379000  0.29997000  0.94444000
C    0.21910000  0.26668000  0.88889000
C    0.21910000  0.36668000  0.94444000
C    0.34379000  0.20002000  0.88889000
C    0.34379000  0.29997000  0.94445000
C    0.46910000  0.23332000  0.94445000
C    0.46916000  0.33332000  0.88891000
C    0.59379000  0.20003000  0.88888000
C    0.59379000  0.29998000  0.94443000
C    0.71910000  0.26669000  0.88888000
C    0.71910000  0.36669000  0.94443000
C    0.84379000  0.20003000  0.88889000
C    0.84379000  0.29998000  0.94444000
C    0.96910000  0.23332000  0.94444000
C    0.96916000  0.33333000  0.88889000
C    0.09376000  0.39999000  0.88889000
C    0.09376000  0.50000000  0.94444000
C    0.21911000  0.46665000  0.88888000
C    0.21909000  0.56666000  0.94444000
C    0.34378000  0.39998000  0.88889000
C    0.34377000  0.50000000  0.94444000
C    0.46909000  0.43334000  0.94445000
C    0.46913000  0.53335000  0.88889000
C    0.59376000  0.40000000  0.88884000
C    0.59377000  0.49999000  0.94439000
C    0.71909000  0.46664000  0.88885000
C    0.71908000  0.56665000  0.94444000
C    0.84377000  0.39998000  0.88888000
C    0.84375000  0.50000000  0.94444000
C    0.96908000  0.43334000  0.94444000
C    0.96909000  0.53336000  0.88888000
C    0.09378000  0.60002000  0.88888000
C    0.09379000  0.70002000  0.94444000
C    0.21917000  0.66667000  0.88888000
C    0.21911000  0.76668000  0.94444000
C    0.34379000  0.60001000  0.88886000
C    0.34380000  0.70003000  0.94444000
C    0.46911000  0.63331000  0.94443000
C    0.46911000  0.73331000  0.88886000
C    0.59378000  0.59999000  0.88883000
C    0.59379000  0.70001000  0.94443000
C    0.71915000  0.66667000  0.88888000
C    0.71910000  0.76667000  0.94444000
C    0.84376000  0.60000000  0.88888000
C    0.84379000  0.70003000  0.94444000
C    0.96910000  0.63332000  0.94444000
C    0.96910000  0.73332000  0.88889000
C    0.09379000  0.79997000  0.88889000
C    0.09376000  0.89999000  0.94444000
C    0.21910000  0.86668000  0.88889000
C    0.21910000  0.96664000  0.94444000
C    0.34379000  0.79997000  0.88888000
C    0.34378000  0.89998000  0.94444000
C    0.46916000  0.83332000  0.94444000
C    0.46909000  0.93333000  0.88888000
C    0.59379000  0.79996000  0.88887000
C    0.59376000  0.89999000  0.94444000
C    0.71910000  0.86668000  0.88888000
C    0.71910000  0.96664000  0.94444000
C    0.84378000  0.79997000  0.88889000
C    0.84377000  0.89998000  0.94444000
C    0.96916000  0.83332000  0.94444000
C    0.96908000  0.93334000  0.88889000
Si    0.00004000  0.00001000  0.00000000
Si    0.00006000  0.10001000  0.05555000
Si    0.12506000  0.06667000  0.00000000
Si    0.12511000  0.16668000  0.05556000
Si    0.25004000  0.99999000  0.00000000
Si    0.25005000  0.09999000  0.05556000
Si    0.37506000  0.03334000  0.05556000
Si    0.37506000  0.13334000  0.00000000
Si    0.50003000  0.00001000  0.00000000
Si    0.50005000  0.10000000  0.05555000
Si    0.62506000  0.06667000  0.00000000
Si    0.62510000  0.16669000  0.05556000
Si    0.75004000  0.99999000  0.00000000
Si    0.75005000  0.09999000  0.05556000